50612435707798269605014,6,1,2,06,14,1,2,010,14,1,2,012,4,1,2,014,13,1,2,02,14,1,2,07,2,1,2,05,9,1,2,015,7,1,2,07,6,1,2,013,14,1,2,015,2,1,2,05,14,1,2,012,9,1,2,013,15,1,2,014,4,1,2,013,2,1,2,015,4,1,2,011,14,1,2,03,10,1,2,013,3,1,2,011,7,1,2,03,15,1,2,08,13,1,2,07,6,1,2,015,15,1,2,013,5,1,2,015,11,1,2,01,15,1,2,012,14,1,2,09,2,1,2,010,14,1,2,04,1,1,2,03,14,1,2,013,13,1,2,011,3,1,2,05,5,1,2,013,15,1,2,010,1,1,2,015,11,1,2,02,4,1,2,014,5,1,2,04,14,1,2,08,5,1,2,08,6,1,2,03,9,1,2,010,12,1,2,015,12,1,2,07,14,1,2,012,11,1,2,0